c read Graph
c width = 11
c time = 11 ms
c width = 1
c time = 26 ms
c width = 1
c time = 4922 ms
s td 228 2 288
b 1 139 140
b 2 1 139
b 3 1 127
b 4 2
b 5 119 120
b 6 3 120
b 7 4 65
b 8 5
b 9 6
b 10 7 242
b 11 8 141
b 12 9
b 13 10 226
b 14 12 100
b 15 99 100
b 16 11 99
b 17 11 78
b 18 77 78
b 19 10 77
b 20 207 208
b 21 10 207
b 22 187 188
b 23 10 188
b 24 13 161
b 25 221 222
b 26 14 221
b 27 16 102
b 28 101 102
b 29 15 101
b 30 251 252
b 31 15 252
b 32 215 216
b 33 17 216
b 34 109 110
b 35 17 109
b 36 18
b 37 19 261
b 38 19 178
b 39 28 94
b 40 28 288
b 41 287 288
b 42 20 287
b 43 133 134
b 44 20 134
b 45 85 86
b 46 21 85
b 47 22
b 48 151 152
b 49 23 152
b 50 24 144
b 51 25 181
b 52 165 166
b 53 25 166
b 54 27 93
b 55 27 254
b 56 253 254
b 57 26 253
b 58 29 230
b 59 29 224
b 60 30 217
b 61 281 282
b 62 31 281
b 63 31 210
b 64 32 73
b 65 33
b 66 105 106
b 67 34 105
b 68 35
b 69 36 145
b 70 36 190
b 71 37 200
b 72 38 204
b 73 39 285
b 74 40 286
b 75 183 184
b 76 40 183
b 77 40 74
b 78 41
b 79 42 171
b 80 147 148
b 81 43 147
b 82 44 146
b 83 45 202
b 84 46 244
b 85 47
b 86 81 82
b 87 48 82
b 88 167 168
b 89 49 168
b 90 257 258
b 91 50 257
b 92 51 103
b 93 52
b 94 53 108
b 95 237 238
b 96 53 237
b 97 54 76
b 98 55 159
b 99 55 88
b 100 56
b 101 57 273
b 102 58 274
b 103 58 205
b 104 59
b 105 60 95
b 106 60 246
b 107 61
b 108 62 264
b 109 63
b 110 219 220
b 111 64 220
b 112 66
b 113 67
b 114 68
b 115 69 70
b 116 71 72
b 117 75
b 118 79
b 119 80
b 120 83
b 121 84
b 122 87
b 123 89
b 124 90
b 125 91
b 126 92
b 127 96
b 128 97 98
b 129 104
b 130 107
b 131 111
b 132 112
b 133 113 114
b 134 115 116
b 135 117
b 136 118
b 137 121
b 138 122
b 139 123 124
b 140 125
b 141 126
b 142 128
b 143 129
b 144 130
b 145 131
b 146 132
b 147 135
b 148 136
b 149 137
b 150 138
b 151 142
b 152 143
b 153 149
b 154 150
b 155 153
b 156 154
b 157 155
b 158 156
b 159 157 158
b 160 160
b 161 162
b 162 163
b 163 164
b 164 169 170
b 165 172
b 166 173
b 167 174
b 168 175
b 169 176
b 170 177
b 171 179
b 172 180
b 173 182
b 174 185 186
b 175 189
b 176 191
b 177 192
b 178 193
b 179 194
b 180 195
b 181 196
b 182 197 198
b 183 199
b 184 201
b 185 203
b 186 206
b 187 209
b 188 211
b 189 212
b 190 213 214
b 191 218
b 192 223
b 193 225
b 194 227 228
b 195 229
b 196 231
b 197 232
b 198 233
b 199 234
b 200 235
b 201 236
b 202 239
b 203 240
b 204 241
b 205 243
b 206 245
b 207 247
b 208 248
b 209 249 250
b 210 255 256
b 211 259
b 212 260
b 213 262
b 214 263
b 215 265
b 216 266
b 217 267 268
b 218 269
b 219 270
b 220 271
b 221 272
b 222 275
b 223 276
b 224 277 278
b 225 279
b 226 280
b 227 283
b 228 284
1 2
1 4
1 5
1 7
1 8
1 9
1 10
1 11
1 12
1 13
1 24
1 25
1 27
1 32
1 36
1 37
1 39
1 45
1 47
1 48
1 50
1 51
1 54
1 58
1 60
1 61
1 64
1 65
1 66
1 68
1 69
1 71
1 72
1 73
1 74
1 78
1 79
1 80
1 82
1 83
1 84
1 85
1 86
1 88
1 90
1 92
1 93
1 94
1 97
1 98
1 100
1 101
1 102
1 104
1 105
1 107
1 108
1 109
1 110
1 112
1 113
1 114
1 115
1 116
1 117
1 118
1 119
1 120
1 121
1 122
1 123
1 124
1 125
1 126
1 127
1 128
1 129
1 130
1 131
1 132
1 133
1 134
1 135
1 136
1 137
1 138
1 139
1 140
1 141
1 142
1 143
1 144
1 145
1 146
1 147
1 148
1 149
1 150
1 151
1 152
1 153
1 154
1 155
1 156
1 157
1 158
1 159
1 160
1 161
1 162
1 163
1 164
1 165
1 166
1 167
1 168
1 169
1 170
1 171
1 172
1 173
1 174
1 175
1 176
1 177
1 178
1 179
1 180
1 181
1 182
1 183
1 184
1 185
1 186
1 187
1 188
1 189
1 190
1 191
1 192
1 193
1 194
1 195
1 196
1 197
1 198
1 199
1 200
1 201
1 202
1 203
1 204
1 205
1 206
1 207
1 208
1 209
1 210
1 211
1 212
1 213
1 214
1 215
1 216
1 217
1 218
1 219
1 220
1 221
1 222
1 223
1 224
1 225
1 226
1 227
1 228
2 3
5 6
13 19
13 21
13 23
14 15
15 16
16 17
17 18
18 19
20 21
22 23
25 26
27 28
28 29
29 31
30 31
32 33
33 35
34 35
37 38
39 40
40 41
41 42
42 44
43 44
45 46
48 49
51 53
52 53
54 55
55 56
56 57
58 59
61 62
62 63
66 67
69 70
74 76
74 77
75 76
80 81
86 87
88 89
90 91
94 96
95 96
98 99
102 103
105 106
110 111
